371 5
10 10 10 10 10 

0 0 0 0 0 0 5 2 34 46 78 110 
0 0 0 0 0 0 2 3 32 
7 0 0 1 1 1 1 4 
3 0 0 2 1 2 1 5 
6 0 0 4 1 1 1 6 
8 0 0 3 2 1 1 7 
1 0 0 3 1 1 2 31 8 
7 0 0 2 4 3 1 9 
1 0 0 4 1 2 1 10 
9 0 0 3 3 3 5 28 23 16 15 11 
8 0 0 3 3 2 1 12 
4 0 0 2 5 2 2 18 13 
2 0 0 1 2 4 1 14 
4 0 0 4 2 1 1 17 
2 0 0 2 2 1 1 18 
2 0 0 3 2 4 1 17 
3 0 0 5 3 1 1 19 
8 0 0 2 2 2 1 19 
8 0 0 3 3 3 1 20 
8 0 0 2 2 4 2 30 21 
3 0 0 3 1 3 2 22 156 
3 0 0 2 2 4 1 24 
4 0 0 3 2 2 1 24 
10 0 0 4 5 2 1 25 
6 0 0 3 3 2 1 26 
8 0 0 1 1 5 1 27 
3 0 0 1 4 3 1 29 
2 0 0 3 4 2 1 29 
10 0 0 2 1 1 1 33 
6 0 0 1 5 4 1 33 
4 0 0 2 5 4 1 33 
4 0 0 1 2 5 1 33 
0 0 0 0 0 0 1 268 
0 0 0 0 0 0 2 35 37 
2 0 0 0 1 0 3 40 39 36 
8 0 0 0 1 0 1 38 
9 0 0 0 1 0 1 38 
10 0 0 0 5 0 1 41 
6 0 0 0 2 0 1 41 
6 0 0 0 1 0 1 41 
10 0 0 0 4 0 2 42 294 
4 0 0 0 3 0 1 43 
10 0 0 0 3 0 1 44 
7 0 0 0 4 0 1 45 
0 0 0 0 0 0 4 142 164 186 198 
0 0 0 0 0 0 2 47 52 
5 0 1 1 0 1 1 48 
7 0 5 3 0 1 2 51 49 
8 0 1 3 0 3 1 50 
4 0 5 1 0 2 1 53 
7 0 4 5 0 2 1 53 
10 0 2 3 0 3 1 53 
10 0 2 4 0 6 2 56 54 
6 0 2 1 0 2 1 55 
7 0 2 3 0 2 2 67 57 
6 0 5 1 0 2 3 60 59 276 
1 0 3 1 0 3 1 58 
1 0 1 1 0 1 1 59 
7 0 2 1 0 2 2 66 61 
4 0 6 2 0 3 1 61 
7 0 2 3 0 3 1 62 
3 0 3 2 0 1 3 76 72 63 
10 0 4 4 0 1 1 64 
1 0 2 3 0 4 1 65 
9 0 2 4 0 2 1 68 
1 0 3 2 0 2 1 68 
8 0 1 1 0 3 3 76 72 71 
5 0 1 4 0 4 1 69 
4 0 1 2 0 3 1 70 
6 0 2 3 0 2 1 71 
2 0 3 4 0 3 1 73 
5 0 2 3 0 3 1 73 
5 0 3 4 0 2 1 74 
10 0 2 1 0 3 1 75 
10 0 1 3 0 2 1 77 
6 0 2 2 0 4 1 77 
0 0 0 0 0 0 1 268 
0 0 0 0 0 0 2 79 87 
2 0 0 1 1 1 1 80 
10 0 0 1 2 2 2 83 81 
1 0 0 2 2 3 1 82 
4 0 0 3 1 2 1 84 
8 0 0 4 6 3 1 84 
4 0 0 4 2 1 2 91 85 
2 0 0 2 3 2 1 86 
2 0 0 2 2 5 2 101 88 
5 0 0 3 1 3 2 91 90 
7 0 0 3 1 2 1 89 
6 0 0 2 4 3 1 90 
5 0 0 3 2 2 3 105 98 93 
4 0 0 4 1 5 1 92 
3 0 0 1 6 3 2 105 94 
1 0 0 1 2 2 2 94 252 
7 0 0 1 4 4 2 108 95 
9 0 0 2 3 2 1 96 
1 0 0 2 5 3 1 97 
8 0 0 3 2 1 1 99 
4 0 0 2 4 1 1 99 
9 0 0 3 2 1 1 100 
7 0 0 2 3 5 1 102 
5 0 0 5 1 1 2 105 104 
8 0 0 2 1 4 1 103 
7 0 0 2 1 2 1 104 
8 0 0 4 2 2 1 106 
9 0 0 5 1 3 1 106 
1 0 0 2 1 2 1 107 
9 0 0 3 3 2 1 109 
5 0 0 1 6 3 1 109 
0 0 0 0 0 0 1 268 
0 0 0 0 0 0 2 111 240 
10 1 0 1 0 1 1 112 
5 2 0 2 0 2 2 114 113 
10 2 0 2 0 2 2 116 115 
6 2 0 2 0 3 1 115 
1 4 0 3 0 3 1 117 
9 3 0 3 0 2 1 117 
3 2 0 2 0 2 2 120 118 
6 3 0 3 0 3 1 119 
3 4 0 1 0 2 2 123 121 
3 2 0 2 0 1 3 127 123 122 
3 1 0 2 0 4 2 127 122 
2 4 0 2 0 3 1 124 
6 7 0 3 0 4 1 124 
7 2 0 5 0 3 2 130 125 
7 2 0 2 0 1 1 126 
9 2 0 1 0 2 2 131 128 
7 3 0 4 0 2 2 131 129 
5 3 0 2 0 4 1 129 
4 3 0 1 0 5 2 134 132 
2 2 0 4 0 1 2 134 132 
9 1 0 3 0 1 2 134 133 
8 2 0 4 0 4 1 133 
6 1 0 1 0 2 1 135 
8 2 0 4 0 2 1 135 
1 2 0 2 0 2 1 136 
2 2 0 4 0 3 1 137 
8 1 0 3 0 1 1 138 
3 6 0 2 0 3 1 139 
3 1 0 2 0 5 1 140 
3 3 0 3 0 2 1 141 
0 0 0 0 0 0 1 268 
0 0 0 0 0 0 6 143 157 160 161 162 355 
6 0 0 0 1 1 1 144 
1 0 0 0 2 3 1 145 
9 0 0 0 2 2 1 146 
5 0 0 0 1 1 2 159 147 
8 0 0 0 1 3 1 148 
1 0 0 0 1 3 1 149 
6 0 0 0 7 5 1 150 
10 0 0 0 2 2 1 151 
4 0 0 0 2 1 1 152 
3 0 0 0 3 1 1 153 
7 0 0 0 3 4 1 154 
6 0 0 0 3 3 1 155 
8 0 0 0 2 6 1 156 
8 0 0 0 4 2 1 158 
1 0 0 0 2 2 1 158 
7 0 0 0 3 2 1 163 
9 0 0 0 1 2 1 163 
7 0 0 0 4 2 1 163 
7 0 0 0 2 2 1 163 
5 0 0 0 4 3 1 163 
0 0 0 0 0 0 1 268 
0 0 0 0 0 0 2 165 171 
2 0 0 1 0 1 1 166 
3 0 0 5 0 2 1 167 
1 0 0 3 0 1 1 168 
4 0 0 2 0 3 2 173 169 
9 0 0 3 0 3 1 170 
9 0 0 1 0 4 2 181 172 
2 0 0 2 0 4 2 181 172 
1 0 0 3 0 2 1 174 
7 0 0 3 0 4 1 174 
6 0 0 1 0 3 2 179 175 
7 0 0 4 0 5 1 176 
5 0 0 2 0 3 3 184 177 363 
5 0 0 5 0 1 1 178 
8 0 0 6 0 1 1 180 
9 0 0 1 0 1 2 184 183 
4 0 0 1 0 1 1 182 
1 0 0 4 0 2 1 182 
1 0 0 1 0 1 1 183 
6 0 0 1 0 2 1 185 
5 0 0 1 0 6 1 185 
0 0 0 0 0 0 1 268 
0 0 0 0 0 0 2 187 189 
5 0 0 0 1 0 1 188 
9 0 0 0 3 0 2 191 190 
3 0 0 0 3 0 3 191 190 263 
7 0 0 0 1 0 1 192 
1 0 0 0 2 0 1 192 
3 0 0 0 4 0 2 194 193 
1 0 0 0 4 0 1 195 
2 0 0 0 3 0 1 195 
1 0 0 0 1 0 1 196 
2 0 0 0 3 0 1 197 
0 0 0 0 0 0 4 220 232 244 256 
0 0 0 0 0 0 2 199 206 
2 0 1 1 0 0 1 200 
8 0 1 1 0 0 2 212 201 
6 0 2 2 0 0 2 218 202 
3 0 1 1 0 0 1 203 
10 0 3 1 0 0 3 217 204 315 
1 0 2 4 0 0 1 205 
9 0 4 1 0 0 2 211 207 
1 0 5 3 0 0 2 218 207 
8 0 5 1 0 0 1 208 
8 0 3 4 0 0 1 209 
5 0 2 4 0 0 1 210 
10 0 3 2 0 0 1 213 
8 0 1 3 0 0 1 213 
4 0 2 4 0 0 1 213 
9 0 3 3 0 0 1 214 
4 0 3 4 0 0 1 215 
1 0 2 2 0 0 1 216 
9 0 4 5 0 0 1 219 
10 0 1 2 0 0 1 219 
9 0 2 2 0 0 1 219 
0 0 0 0 0 0 1 268 
0 0 0 0 0 0 1 221 
9 0 0 0 0 1 2 225 222 
5 0 0 0 0 1 1 223 
10 0 0 0 0 5 2 226 224 
10 0 0 0 0 2 1 227 
1 0 0 0 0 2 1 226 
5 0 0 0 0 4 2 230 228 
1 0 0 0 0 4 3 230 228 247 
9 0 0 0 0 1 1 229 
1 0 0 0 0 1 1 231 
2 0 0 0 0 4 1 231 
0 0 0 0 0 0 1 268 
0 0 0 0 0 0 2 233 234 
3 0 0 0 0 1 3 238 237 235 
5 0 0 0 0 2 3 237 236 320 
4 0 0 0 0 2 1 236 
7 0 0 0 0 3 1 239 
5 0 0 0 0 6 1 239 
4 0 0 0 0 1 1 239 
2 0 0 0 0 1 1 240 
5 0 0 0 0 2 1 241 
4 0 0 0 0 4 1 242 
3 0 0 0 0 3 1 243 
0 0 0 0 0 0 1 268 
0 0 0 0 0 0 2 245 254 
3 0 0 0 1 0 2 251 246 
10 0 0 0 3 0 1 247 
1 0 0 0 4 0 3 253 248 353 
3 0 0 0 3 0 1 249 
1 0 0 0 3 0 1 250 
5 0 0 0 1 0 1 252 
3 0 0 0 4 0 1 253 
3 0 0 0 2 0 1 255 
5 0 0 0 2 0 1 255 
5 0 0 0 2 0 1 255 
0 0 0 0 0 0 1 268 
0 0 0 0 0 0 3 257 260 299 
6 0 0 0 0 1 1 258 
5 0 0 0 0 1 1 259 
6 0 0 0 0 2 2 264 262 
6 0 0 0 0 2 1 261 
9 0 0 0 0 2 1 262 
5 0 0 0 0 5 1 263 
1 0 0 0 0 4 1 265 
5 0 0 0 0 4 1 265 
5 0 0 0 0 1 1 266 
3 0 0 0 0 3 1 267 
0 0 0 0 0 0 1 268 
0 0 0 0 0 0 4 269 281 303 325 
0 0 0 0 0 0 2 270 295 
5 1 0 0 0 0 1 271 
7 3 0 0 0 0 2 279 272 
8 4 0 0 0 0 1 273 
4 1 0 0 0 0 2 276 274 
3 1 0 0 0 0 1 275 
1 3 0 0 0 0 1 277 
1 3 0 0 0 0 1 278 
6 2 0 0 0 0 1 280 
7 3 0 0 0 0 1 280 
4 4 0 0 0 0 1 280 
0 0 0 0 0 0 2 347 359 
0 0 0 0 0 0 2 282 293 
2 0 1 0 0 1 2 286 283 
6 0 5 0 0 1 1 284 
10 0 4 0 0 3 2 285 350 
7 0 3 0 0 3 2 291 287 
1 0 1 0 0 2 1 287 
4 0 1 0 0 3 1 288 
3 0 4 0 0 3 2 298 289 
9 0 1 0 0 4 1 290 
3 0 1 0 0 1 1 292 
6 0 2 0 0 3 1 292 
5 0 2 0 0 2 2 301 294 
4 0 2 0 0 4 1 294 
2 0 2 0 0 2 1 295 
1 0 2 0 0 3 1 296 
8 0 3 0 0 3 1 297 
1 0 2 0 0 1 1 299 
7 0 7 0 0 4 1 299 
1 0 3 0 0 1 1 300 
4 0 3 0 0 3 1 302 
6 0 1 0 0 3 1 302 
0 0 0 0 0 0 1 371 
0 0 0 0 0 0 2 304 306 
8 0 1 0 0 1 2 305 330 
6 0 3 0 0 2 2 309 307 
3 0 1 0 0 4 2 309 307 
6 0 3 0 0 2 1 308 
4 0 5 0 0 3 2 312 310 
5 0 1 0 0 2 2 312 310 
10 0 2 0 0 2 2 314 311 
7 0 1 0 0 2 1 313 
7 0 1 0 0 3 1 313 
1 0 3 0 0 1 1 315 
2 0 3 0 0 5 1 315 
7 0 4 0 0 2 1 316 
2 0 4 0 0 2 1 317 
10 0 2 0 0 5 1 318 
4 0 3 0 0 2 1 319 
5 0 3 0 0 4 2 321 320 
5 0 1 0 0 2 1 322 
6 0 2 0 0 1 1 322 
4 0 3 0 0 1 1 323 
6 0 4 0 0 4 1 324 
0 0 0 0 0 0 1 371 
0 0 0 0 0 0 2 326 327 
4 1 0 0 0 1 2 332 329 
8 1 0 0 0 2 1 328 
1 1 0 0 0 3 2 332 331 
6 2 0 0 0 3 1 330 
5 3 0 0 0 2 1 331 
8 3 0 0 0 6 1 333 
8 4 0 0 0 4 1 333 
7 2 0 0 0 1 2 334 357 
7 4 0 0 0 2 2 338 335 
5 2 0 0 0 1 1 336 
2 2 0 0 0 4 1 337 
4 2 0 0 0 3 1 339 
10 3 0 0 0 3 1 339 
10 5 0 0 0 3 2 345 340 
5 3 0 0 0 2 1 341 
1 2 0 0 0 2 1 342 
3 3 0 0 0 2 1 343 
3 2 0 0 0 2 1 344 
1 1 0 0 0 3 1 346 
8 4 0 0 0 1 1 346 
0 0 0 0 0 0 1 371 
0 0 0 0 0 0 2 348 350 
10 0 1 0 0 0 3 357 352 349 
6 0 3 0 0 0 1 351 
9 0 4 0 0 0 2 351 367 
4 0 2 0 0 0 1 353 
4 0 5 0 0 0 1 353 
8 0 1 0 0 0 1 354 
7 0 2 0 0 0 1 355 
8 0 3 0 0 0 1 356 
3 0 2 0 0 0 1 358 
8 0 2 0 0 0 1 358 
0 0 0 0 0 0 1 371 
0 0 0 0 0 0 2 360 361 
10 1 0 0 0 0 3 369 363 362 
5 1 0 0 0 0 1 362 
8 2 0 0 0 0 1 364 
1 4 0 0 0 0 1 364 
9 4 0 0 0 0 1 365 
5 2 0 0 0 0 1 366 
10 3 0 0 0 0 1 367 
1 2 0 0 0 0 1 368 
6 3 0 0 0 0 1 370 
4 3 0 0 0 0 1 370 
0 0 0 0 0 0 1 371 
0 0 0 0 0 0 0 
